
List of user-set options:

                                    Name   Value                used
                        file_print_level = 5                     yes
                   hessian_approximation = limited-memory        yes
                           linear_solver = mumps                 yes
                                max_iter = 500                   yes
                             output_file = IPOPT.out             yes
                             print_level = 0                     yes
                      print_user_options = yes                   yes
                                      sb = yes                   yes
This is Ipopt version 3.14.7, running with linear solver MUMPS 5.4.1.

Number of nonzeros in equality constraint Jacobian...:        0
Number of nonzeros in inequality constraint Jacobian.:      900
Number of nonzeros in Lagrangian Hessian.............:        0

Total number of variables............................:        9
                     variables with only lower bounds:        1
                variables with lower and upper bounds:        0
                     variables with only upper bounds:        0
Total number of equality constraints.................:        0
Total number of inequality constraints...............:      100
        inequality constraints with only lower bounds:       50
   inequality constraints with lower and upper bounds:       50
        inequality constraints with only upper bounds:        0

iter    objective    inf_pr   inf_du lg(mu)  ||d||  lg(rg) alpha_du alpha_pr  ls
   0  1.0000000e-01 2.76e+01 1.32e+00   0.0 0.00e+00    -  0.00e+00 0.00e+00   0
   1  2.0039519e-01 1.37e+01 7.26e+01  -0.6 9.93e-01    -  1.33e-02 9.87e-01f  1
   2  2.4768538e-01 1.13e+01 4.77e+01  -0.2 8.53e-01    -  5.73e-01 2.45e-01f  1
   3  5.0190362e-01 5.85e+00 3.16e+00  -0.2 1.80e+00    -  7.19e-01 1.00e+00f  1
   4  9.8514542e-01 2.81e+00 1.69e+00  -0.5 9.43e-01    -  7.73e-01 1.00e+00h  1
   5  1.8011855e+00 1.14e+00 3.08e-01  -1.0 8.16e-01    -  8.85e-01 1.00e+00h  1
   6  2.6070915e+00 2.21e-01 6.00e-01  -2.3 8.67e-01    -  7.03e-01 1.00e+00h  1
   7  2.9277159e+00 1.86e-02 2.54e-01  -1.7 1.07e+00    -  9.30e-01 1.00e+00h  1
   8  2.7314808e+00 0.00e+00 3.65e-01  -2.7 9.21e-01    -  9.94e-01 1.00e+00h  1
   9  2.2816272e+00 9.55e-01 9.15e-01  -2.0 1.27e+01    -  1.00e+00 1.12e-01f  1
iter    objective    inf_pr   inf_du lg(mu)  ||d||  lg(rg) alpha_du alpha_pr  ls
  10  2.1089385e+00 2.96e-01 1.01e+00  -2.0 1.20e+00    -  6.18e-01 8.80e-01h  1
  11  2.1263158e+00 0.00e+00 3.14e-01  -2.0 5.96e-01    -  1.00e+00 8.43e-01h  1
  12  2.5342086e+00 0.00e+00 5.22e-01  -1.6 2.34e+00    -  6.53e-01 1.00e+00f  1
  13  2.1853644e+00 0.00e+00 4.30e-01  -1.8 1.49e+00    -  6.07e-01 1.00e+00h  1
  14  2.0759259e+00 0.00e+00 4.98e-01  -1.8 1.23e+00    -  2.77e-01 1.00e+00h  1
  15  1.9961015e+00 0.00e+00 1.71e-01  -1.8 1.10e+00    -  4.73e-01 1.00e+00h  1
  16  1.8185431e+00 0.00e+00 1.11e-01  -2.4 1.78e-01    -  9.92e-01 1.00e+00h  1
  17  1.6636441e+00 4.33e-03 1.40e-01  -2.8 4.82e-01    -  9.86e-01 7.88e-01h  1
  18  2.5172156e+00 0.00e+00 2.91e+00  -1.2 9.12e+00    -  3.67e-02 3.24e-01f  1
  19  1.1636496e+00 5.47e-01 3.17e-01  -2.3 5.60e+00    -  7.95e-02 1.00e+00h  1
iter    objective    inf_pr   inf_du lg(mu)  ||d||  lg(rg) alpha_du alpha_pr  ls
  20  1.5766009e+00 7.35e-02 2.17e-01  -2.0 2.30e+00    -  1.00e+00 1.00e+00h  1
  21  1.3603332e+00 0.00e+00 1.92e-01  -2.6 1.87e+00    -  9.92e-01 1.00e+00h  1
  22  1.4015886e+00 0.00e+00 2.96e-02  -2.3 5.89e-01    -  1.00e+00 1.00e+00h  1
  23  1.1653937e+00 5.89e-02 1.03e-01  -3.3 9.41e-01    -  9.24e-01 9.99e-01h  1
  24  1.1795486e+00 0.00e+00 1.47e-02  -3.2 1.80e-01    -  9.89e-01 1.00e+00h  1
  25  1.1576363e+00 7.87e-04 1.55e-02  -3.6 2.57e-01    -  1.00e+00 9.14e-01h  1
  26  1.1538184e+00 0.00e+00 1.27e-03  -3.8 4.48e-02    -  1.00e+00 9.98e-01h  1
  27  1.1522147e+00 5.37e-06 4.55e-03  -4.2 2.70e-02    -  1.00e+00 9.28e-01h  1
  28  1.1512516e+00 2.87e-07 4.11e-02  -4.7 5.57e-02    -  1.00e+00 8.11e-01h  1
  29  1.1511162e+00 0.00e+00 3.37e-03  -4.9 1.26e-02    -  1.00e+00 9.85e-01h  1
iter    objective    inf_pr   inf_du lg(mu)  ||d||  lg(rg) alpha_du alpha_pr  ls
  30  1.1510437e+00 0.00e+00 2.66e-02  -5.6 4.10e-03    -  1.00e+00 8.56e-01h  1
  31  1.1510198e+00 0.00e+00 3.46e-03  -6.7 1.55e-03    -  1.00e+00 9.39e-01h  1
  32  1.1510174e+00 1.98e-08 7.98e-07  -8.6 2.46e-04    -  1.00e+00 1.00e+00h  1
  33  1.1510174e+00 0.00e+00 2.76e-08 -11.0 8.40e-06    -  1.00e+00 1.00e+00h  1
  34  1.1510174e+00 0.00e+00 1.08e-10 -11.0 2.97e-08    -  1.00e+00 1.00e+00h  1

Number of Iterations....: 34

                                   (scaled)                 (unscaled)
Objective...............:   1.1510173561246158e+00    1.1510173561246158e+00
Dual infeasibility......:   1.0760948436994533e-10    1.0760948436994533e-10
Constraint violation....:   0.0000000000000000e+00    0.0000000000000000e+00
Variable bound violation:   0.0000000000000000e+00    0.0000000000000000e+00
Complementarity.........:   1.0000030311510119e-11    1.0000030311510119e-11
Overall NLP error.......:   1.0760948436994533e-10    1.0760948436994533e-10


Number of objective function evaluations             = 35
Number of objective gradient evaluations             = 35
Number of equality constraint evaluations            = 0
Number of inequality constraint evaluations          = 35
Number of equality constraint Jacobian evaluations   = 0
Number of inequality constraint Jacobian evaluations = 35
Number of Lagrangian Hessian evaluations             = 0
Total seconds in IPOPT                               = 0.713

EXIT: Optimal Solution Found.
